NAME : rc_203.2.txt.7841583.tour
COMMENT : Length = 7841583
COMMENT : Found by LKH [Keld Helsgaun] Tue May  2 05:21:40 2017
TYPE : TOUR
DIMENSION : 33
TOUR_SECTION
1
29
18
14
13
11
12
27
26
22
32
28
4
9
7
15
5
31
17
8
16
6
30
20
23
24
19
21
2
3
10
25
33
-1
EOF
